! pbe d3 def2-tzvp pal8

*xyzfile 0 1 your-xyz-file.xyz
